clingo version 5.5.2
Reading from ...nt/beegfs/home/jubruns/encoding/mif.lp ...
Solving...
Answer: 1
move(1,(28,24),(28,25),1) move(1,(28,25),(28,26),2) move(1,(28,26),(28,27),3) move(2,(1,7),(1,8),1) move(2,(1,8),(2,8),2) move(2,(2,8),(3,8),3) move(2,(3,8),(4,8),4) move(2,(4,8),(5,8),5) move(2,(5,8),(6,8),6) move(2,(6,8),(6,9),7) move(2,(6,9),(7,9),8) move(2,(7,9),(8,9),9) move(2,(8,9),(9,9),10) move(2,(9,9),(10,9),11) move(2,(10,9),(10,10),12) move(2,(10,10),(11,10),13) move(2,(11,10),(12,10),14) move(2,(12,10),(12,11),15) move(2,(12,11),(13,11),16) move(2,(13,11),(14,11),17) move(2,(14,11),(15,11),18) move(2,(15,11),(15,12),19) move(2,(15,12),(15,13),20) move(2,(15,13),(15,14),21) move(2,(15,14),(16,14),22) move(2,(16,14),(17,14),23) move(2,(17,14),(18,14),24) move(2,(18,14),(18,15),25) move(2,(18,15),(18,16),26) move(2,(18,16),(18,17),27) move(2,(18,17),(18,18),28) move(2,(18,18),(18,19),29) move(2,(18,19),(18,20),30) move(2,(18,20),(18,21),31) move(2,(18,21),(18,22),32) move(2,(18,22),(18,23),33) move(2,(18,23),(17,23),34) move(2,(17,23),(16,23),35) move(2,(16,23),(15,23),36) move(2,(15,23),(15,24),37) move(2,(15,24),(14,24),38) move(2,(14,24),(13,24),39) move(2,(13,24),(12,24),40) move(2,(12,24),(11,24),41) move(2,(11,24),(10,24),42) move(2,(10,24),(9,24),43) move(2,(9,24),(8,24),44) move(2,(8,24),(7,24),45) move(2,(7,24),(6,24),46) move(2,(6,24),(5,24),47) move(2,(5,24),(4,24),48) move(2,(4,24),(4,25),49) move(2,(4,25),(3,25),50) move(2,(3,25),(2,25),51) move(2,(2,25),(2,26),52) move(2,(2,26),(2,27),53) move(2,(2,27),(1,27),54)
SATISFIABLE

Models       : 1+
Calls        : 1
Time         : 1.997s (Solving: 0.06s 1st Model: 0.06s Unsat: 0.00s)
CPU Time     : 1.944s

Choices      : 479      (Domain: 241)
Conflicts    : 11       (Analyzed: 11)
Restarts     : 0       
Model-Level  : 205.0   
Problems     : 1        (Average Length: 0.00 Splits: 0)
Lemmas       : 11       (Deleted: 0)
  Binary     : 5        (Ratio:  45.45%)
  Ternary    : 0        (Ratio:   0.00%)
  Conflict   : 11       (Average Length:   65.9 Ratio: 100.00%) 
  Loop       : 0        (Average Length:    0.0 Ratio:   0.00%) 
  Other      : 0        (Average Length:    0.0 Ratio:   0.00%) 
Backjumps    : 11       (Average: 24.91 Max:  50 Sum:    274)
  Executed   : 11       (Average: 24.91 Max:  50 Sum:    274 Ratio: 100.00%)
  Bounded    : 0        (Average:  0.00 Max:   0 Sum:      0 Ratio:   0.00%)

Rules        : 597776   (Original: 542511)
  Choice     : 108     
  Heuristic  : 26857    (Original: 27956)
Atoms        : 312268   (Original: 298034 Auxiliary: 14234)
Bodies       : 372960   (Original: 330870)
  Count      : 173      (Original: 323)
Equivalences : 201120   (Atom=Atom: 113 Body=Body: 120 Other: 200887)
Tight        : Yes
Variables    : 405008   (Eliminated:    0 Frozen: 188599)
Constraints  : 936822   (Binary:  77.2% Ternary:  20.3% Other:   2.5%)

